#######################
Slurm job id: 17497813_37
Running on machine: p32
Running cmd: /nfs/shared/static-builds/gurobi1003 SOFTMEMLIMIT=125 MIPFocus=3 Presolve=1 TimeLimit=500 seed=16 /nfs/models/miplib2010/k16x240.mps.bz2
#######################
Set parameter TimeLimit to value 500
Set parameter SoftMemLimit to value 125
Set parameter MIPFocus to value 3
Set parameter LogFile to value 1003-MIPFocus3-Presolve1-TimeLimit500-k16x240-6.log
Set parameter Presolve to value 1
Set parameter Seed to value 16
Using license file /opt/gurobi/gurobi.lic

Gurobi Optimizer version 10.0.3 build v10.0.3rc0 (linux64)
Copyright (c) 2023, Gurobi Optimization, LLC

Read MPS format model from file /nfs/models/miplib2010/k16x240.mps.bz2
Reading time = 0.00 seconds
k16x240: 256 rows, 480 columns, 960 nonzeros

CPU model: Intel(R) Xeon(R) E-2388G CPU @ 3.20GHz, instruction set [SSE2|AVX|AVX2|AVX512]
Thread count: 8 physical cores, 16 logical processors, using up to 16 threads

Optimize a model with 256 rows, 480 columns and 960 nonzeros
Model fingerprint: 0x4e80885f
Variable types: 240 continuous, 240 integer (240 binary)
Coefficient statistics:
  Matrix range     [1e+00, 1e+03]
  Objective range  [1e+00, 1e+03]
  Bounds range     [1e+00, 1e+03]
  RHS range        [4e+00, 4e+02]
Found heuristic solution: objective 20319.000000
Presolve time: 0.00s
Presolved: 256 rows, 480 columns, 960 nonzeros
Variable types: 240 continuous, 240 integer (240 binary)

Root relaxation: objective 2.769838e+03, 51 iterations, 0.00 seconds (0.00 work units)

    Nodes    |    Current Node    |     Objective Bounds      |     Work
 Expl Unexpl |  Obj  Depth IntInf | Incumbent    BestBd   Gap | It/Node Time

     0     0 2769.83800    0   14 20319.0000 2769.83800  86.4%     -    0s
H    0     0                    11359.000000 2769.83800  75.6%     -    0s
H    0     0                    11195.000000 2769.83800  75.3%     -    0s
H    0     0                    11074.000000 8116.87580  26.7%     -    0s
H    0     0                    10916.000000 8116.87580  25.6%     -    0s
     0     0 8116.87580    0   26 10916.0000 8116.87580  25.6%     -    0s
H    0     0                    10826.000000 8116.87580  25.0%     -    0s
     0     0 8742.09840    0   28 10826.0000 8742.09840  19.2%     -    0s
     0     0 8901.59669    0   25 10826.0000 8901.59669  17.8%     -    0s
     0     0 8901.59669    0   35 10826.0000 8901.59669  17.8%     -    0s
     0     0 8901.59669    0   37 10826.0000 8901.59669  17.8%     -    0s
     0     0 8915.83459    0   35 10826.0000 8915.83459  17.6%     -    0s
     0     0 8916.56684    0   35 10826.0000 8916.56684  17.6%     -    0s
     0     0 9068.62925    0   30 10826.0000 9068.62925  16.2%     -    0s
     0     0 9087.17307    0   34 10826.0000 9087.17307  16.1%     -    0s
     0     0 9161.91120    0   31 10826.0000 9161.91120  15.4%     -    0s
     0     0 9161.91120    0   31 10826.0000 9161.91120  15.4%     -    0s
     0     2 9161.91120    0   31 10826.0000 9161.91120  15.4%     -    0s
H   31    40                    10765.000000 9270.36022  13.9%  72.7    0s
H   34    40                    10748.000000 9271.70355  13.7%  70.7    0s
H  974   991                    10681.000000 9575.11002  10.4%  39.1    0s
H 1096  1101                    10674.000000 9588.73168  10.2%  38.5    0s
  4637  3361 10329.2829   21   34 10674.0000 10230.9561  4.15%  95.0    5s
 17310 11287 10604.5866   23   16 10674.0000 10436.9393  2.22%  78.7   10s
 43132 13398 10654.0708   32    7 10674.0000 10587.0001  0.82%  55.7   15s

Cutting planes:
  Gomory: 1
  Lift-and-project: 7
  Implied bound: 7
  MIR: 120
  Flow cover: 497
  Flow path: 28
  Zero half: 35
  Network: 15
  Relax-and-lift: 3

Explored 66347 nodes (2779730 simplex iterations) in 16.96 seconds (22.79 work units)
Thread count was 16 (of 16 available processors)

Solution count 10: 10674 10681 10748 ... 20319

Optimal solution found (tolerance 1.00e-04)
Best objective 1.067400000000e+04, best bound 1.067304545882e+04, gap 0.0089%
